&CONTROL
  calculation = 'relax',
  prefix = 'Al001_m4_fromscratch',
  outdir = './out',
  pseudo_dir = './pseudo',
  tstress = .true.,
  tprnfor = .true.,
  disk_io = 'low',
  nstep = 100,
/

&SYSTEM
  ibrav = 0,
  nat = 32,
  ntyp = 1,
  ecutwfc = 25.0,
  ecutrho = 200.0,
  occupations = 'smearing',
  smearing = 'mv',
  degauss = 0.02,
  nosym = .true.,
/

&ELECTRONS
  conv_thr = 1.0e-06,
  mixing_beta = 0.3,
  electron_maxstep = 100,
/

&IONS
  ion_dynamics = 'bfgs',
  forc_conv_thr = 5.0e-03,
/

ATOMIC_SPECIES
  Al  26.9815385  Al.pbe-n-kjpaw_psl.1.0.0.UPF

CELL_PARAMETERS (angstrom)
  8.1000000000  0.0000000000  0.0000000000
  0.0000000000  8.1000000000  0.0000000000
  0.0000000000  0.0000000000  21.0750000000

ATOMIC_POSITIONS (angstrom)
  Al  0.00000000  0.00000000  7.50000000  0 0 0
  Al  2.02500000  2.02500000  7.50000000  0 0 0
  Al  4.05000000  0.00000000  7.50000000  0 0 0
  Al  6.07500000  2.02500000  7.50000000  0 0 0
  Al  0.00000000  4.05000000  7.50000000  0 0 0
  Al  2.02500000  6.07500000  7.50000000  0 0 0
  Al  4.05000000  4.05000000  7.50000000  0 0 0
  Al  6.07500000  6.07500000  7.50000000  0 0 0
  Al  0.00000000  2.02500000  9.52500000  0 0 0
  Al  2.02500000  0.00000000  9.52500000  0 0 0
  Al  4.05000000  2.02500000  9.52500000  0 0 0
  Al  6.07500000  0.00000000  9.52500000  0 0 0
  Al  0.00000000  6.07500000  9.52500000  0 0 0
  Al  2.02500000  4.05000000  9.52500000  0 0 0
  Al  4.05000000  6.07500000  9.52500000  0 0 0
  Al  6.07500000  4.05000000  9.52500000  0 0 0
  Al  0.05577072  -0.18999570  11.75000000  1 1 1
  Al  1.93501173  1.91428430  11.75000000  1 1 1
  Al  4.14458849  0.07067979  11.75000000  1 1 1
  Al  6.23187183  1.85977553  11.75000000  1 1 1
  Al  -0.03123127  3.86191889  11.75000000  1 1 1
  Al  1.91245519  6.07714212  11.75000000  1 1 1
  Al  3.86061439  3.92953506  11.75000000  1 1 1
  Al  6.13495378  6.09297659  11.75000000  1 1 1
  Al  -0.11182375  2.06070627  13.97500000  1 1 1
  Al  2.14877218  -0.19740050  13.97500000  1 1 1
  Al  4.17232770  2.10425576  13.97500000  1 1 1
  Al  6.01110021  -0.13780820  13.97500000  1 1 1
  Al  0.18288523  6.00963782  13.97500000  1 1 1
  Al  1.86209834  3.88868655  13.97500000  1 1 1
  Al  4.18899775  6.11649041  13.97500000  1 1 1
  Al  6.19785131  4.14189271  13.97500000  1 1 1

K_POINTS automatic
  2 2 1  0 0 0
